dias = 10;
clientes = 2;
centrales = 3;

costos=[100,200,300];
capacidades=[100,300,500];
porcentajeRegimen=[80,80,80];
diasRegimen=[2,1,3];


demanda=[|50,200,200,400,0,0,0,100,500,10|
          50,100,100,100,0,0,0,150,300,10|]